140
0 139 51 28 111 128 31 11 70 114 
59 33 116 45 122 100 129 8 107 61 
101 118 5 27 124 39 127 109 78 95 
119 91 54 81 18 83 89 40 17 53 
46 130 25 10 131 77 30 137 50 90 
80 117 74 82 102 48 136 97 94 120 
63 22 14 112 21 12 113 86 110 35 
126 103 65 9 121 66 57 7 60 98 
4 135 55 47 26 132 20 79 43 71 
37 84 133 32 62 15 64 34 125 92 
56 52 134 106 36 75 138 99 88 3 
23 44 108 19 24 115 2 1 93 73 
41 68 69 76 104 6 13 29 67 87 
42 123 105 85 38 58 72 96 49 16 
